# Solution for model GasLib-40
# Objective value = 46.555992285317
loadshed[innode_1] 0
loadshed[innode_2] 0
loadshed[innode_3] 0
loadshed[innode_4] 0
loadshed[innode_5] 0
loadshed[innode_6] 0
loadshed[innode_7] 0
loadshed[innode_8] 0
loadshed[source_1] -0.0625562340286252
loadshed[source_2] 9.4039625139119676e-02
loadshed[source_3] 2.6300652275222058e-01
loadshed[sink_1] 0
loadshed[sink_2] 0
loadshed[sink_3] 0
loadshed[sink_4] 0
loadshed[sink_5] 0
loadshed[sink_6] 0
loadshed[sink_7] 0
loadshed[sink_8] 0
loadshed[sink_9] 0
loadshed[sink_10] 0
loadshed[sink_11] 0
loadshed[sink_12] 1
loadshed[sink_13] 0
loadshed[sink_14] 0
loadshed[sink_15] 0
loadshed[sink_16] 0
loadshed[sink_17] 0
loadshed[sink_18] 0
loadshed[sink_19] 0
loadshed[sink_20] 0
loadshed[sink_21] 1
loadshed[sink_22] 0
loadshed[sink_23] 0
loadshed[sink_24] 8.4673583400664421e-01
loadshed[sink_25] 0
loadshed[sink_26] 0
loadshed[sink_27] 0
loadshed[sink_28] 0
loadshed[sink_29] 0
flow[source_1,sink_3] 1.6797981019209482e+02
flow[innode_1,sink_16] 1.6354166666666970e+01
flow[innode_6,sink_13] -2.0323368718443788e+00
flow[sink_13,sink_14] -1.8386503538511047e+01
flow[sink_14,sink_10] -3.4740670205177715e+01
flow[sink_25,sink_26] 1.9875650771468446e+02
flow[sink_26,sink_9] 3.2708333333334551e+01
flow[sink_9,sink_18] 1.6354166666667879e+01
flow[sink_26,sink_4] 1.4969400771468324e+02
flow[sink_4,sink_20] 3.4107939353796496e+01
flow[sink_18,sink_6] 0
flow[sink_25,innode_8] -1.3527147685875843e+02
flow[sink_6,sink_7] -4.9062500000000313e+01
flow[sink_6,sink_22] 3.2708333333333641e+01
flow[sink_7,sink_24] 2.5065077146830048e+00
flow[sink_22,sink_1] 1.6354166666666970e+01
flow[sink_24,sink_21] 0
flow[sink_21,sink_12] 0
flow[sink_7,sink_5] -6.7923174381349980e+01
flow[sink_5,sink_17] -8.4277341048016652e+01
flow[sink_17,sink_4] -9.9231901694220085e+01
flow[sink_17,sink_8] -1.3996060204632537e+00
flow[sink_3,sink_23] 16.3541666666697
flow[sink_8,sink_20] -1.7753772687129867e+01
flow[sink_25,sink_20] 0
flow[sink_25,sink_15] -7.7806860650748362e+01
flow[sink_15,sink_29] -5.3666247478112233e+01
flow[sink_29,sink_28] 1.6354166666667879e+01
flow[sink_29,sink_2] 5.6848946505969472e+01
flow[sink_2,sink_15] 4.0494779839302808e+01
flow[sink_29,innode_7] -1.4322352731741626e+02
flow[innode_4,sink_19] 4.5053353666576179e+01
flow[sink_19,innode_3] 4.0895593327137746e+01
flow[innode_4,innode_5] 71.4581498719356
flow[sink_27,innode_5] -71.4581498719356
flow[sink_27,sink_19] 5.5103983205268932e+01
flow[sink_10,sink_11] 3.2708333333333641e+01
flow[sink_10,innode_2] -4.2907576878040274e+01
flow[sink_10,innode_3] -4.0895593327137746e+01
flow[innode_6,sink_25] 2.0323368718443788e+00
flow[sink_11,innode_1] 1.6354166666666970e+01
flow[sink_19,innode_2] 4.2907576878040274e+01
flow[source_3,innode_4] 1.1651150353851179e+02
flow[source_2,innode_7] 1.4322352731741626e+02
flow[sink_3,innode_8] 1.3527147685875843e+02
pressure[innode_1] 7.6768479886663116e+01
pressure[innode_2] 7.9188023846367571e+01
pressure[innode_3] 79.0974651858682
pressure[innode_4] 81.01325
pressure[innode_5] 8.0964097316518163e+01
pressure[innode_6] 7.5232888126729435e+01
pressure[innode_7] 81.01325
pressure[innode_8] 8.0451757665141244e+01
pressure[source_1] 81.01325
pressure[source_2] 81.01325
pressure[source_3] 81.01325
pressure[sink_1] 1.1084257824623869e+00
pressure[sink_2] 7.5742533748859060e+01
pressure[sink_3] 8.0451757665141244e+01
pressure[sink_4] 4.2202100445376090e+01
pressure[sink_5] 3.2131731635745105e+01
pressure[sink_6] 3.2095033928497605e+00
pressure[sink_7] 3.8830145705498920e+00
pressure[sink_8] 3.8462595140943506e+01
pressure[sink_9] 5.9276905843723611e+01
pressure[sink_10] 7.6920181194266661e+01
pressure[sink_11] 7.6768479886663116e+01
pressure[sink_12] 1.01325
pressure[sink_13] 7.5244092060268869e+01
pressure[sink_14] 7.5276996274534838e+01
pressure[sink_15] 7.5610327217589457e+01
pressure[sink_16] 7.5746830051845436e+01
pressure[sink_17] 3.8409784369704418e+01
pressure[sink_18] 5.8685163349923904e+01
pressure[sink_19] 7.9188023846367571e+01
pressure[sink_20] 3.9699783421119150e+01
pressure[sink_21] 1.01325
pressure[sink_22] 2.1721949248173971e+00
pressure[sink_23] 8.0287039653481457e+01
pressure[sink_24] 1.01325
pressure[sink_25] 7.5232888126729435e+01
pressure[sink_26] 6.1234584011608220e+01
pressure[sink_27] 8.0371126713044546e+01
pressure[sink_28] 7.6887299448165578e+01
pressure[sink_29] 7.7182581721782768e+01
interdiction[source_1,sink_3] 0
interdiction[innode_1,sink_16] 0
interdiction[innode_6,sink_13] 0
interdiction[sink_13,sink_14] 0
interdiction[sink_14,sink_10] 0
interdiction[sink_25,sink_26] 0
interdiction[sink_26,sink_9] 0
interdiction[sink_9,sink_18] 0
interdiction[sink_26,sink_4] 0
interdiction[sink_4,sink_20] 0
interdiction[sink_18,sink_6] 1
interdiction[sink_25,innode_8] 0
interdiction[sink_6,sink_7] 0
interdiction[sink_6,sink_22] 0
interdiction[sink_7,sink_24] 0
interdiction[sink_22,sink_1] 0
interdiction[sink_24,sink_21] 0
interdiction[sink_21,sink_12] 0
interdiction[sink_7,sink_5] 0
interdiction[sink_5,sink_17] 0
interdiction[sink_17,sink_4] 0
interdiction[sink_17,sink_8] 0
interdiction[sink_3,sink_23] 0
interdiction[sink_8,sink_20] 0
interdiction[sink_25,sink_20] 1
interdiction[sink_25,sink_15] 0
interdiction[sink_15,sink_29] 0
interdiction[sink_29,sink_28] 0
interdiction[sink_29,sink_2] 0
interdiction[sink_2,sink_15] 0
interdiction[sink_29,innode_7] 0
interdiction[innode_4,sink_19] 0
interdiction[sink_19,innode_3] 0
interdiction[innode_4,innode_5] 0
interdiction[sink_27,innode_5] 0
interdiction[sink_27,sink_19] 0
interdiction[sink_10,sink_11] 0
interdiction[sink_10,innode_2] 0
interdiction[sink_10,innode_3] 0
interdiction[innode_6,sink_25] 0
interdiction[sink_11,innode_1] 0
interdiction[sink_19,innode_2] 0
interdiction[source_3,innode_4] 0
interdiction[source_2,innode_7] 0
interdiction[sink_3,innode_8] 0
WCcheckFlow[source_1,sink_3] 39
WCcheckFlow[innode_1,sink_16] 1
WCcheckFlow[innode_6,sink_13] 13
WCcheckFlow[sink_13,sink_14] 12
WCcheckFlow[sink_14,sink_10] 11
WCcheckFlow[sink_25,sink_26] 15
WCcheckFlow[sink_26,sink_9] 2
WCcheckFlow[sink_9,sink_18] 1
WCcheckFlow[sink_26,sink_4] 12
WCcheckFlow[sink_4,sink_20] 1
WCcheckFlow[sink_18,sink_6] 0
WCcheckFlow[sink_25,innode_8] -36
WCcheckFlow[sink_6,sink_7] -3
WCcheckFlow[sink_6,sink_22] 2
WCcheckFlow[sink_7,sink_24] 3
WCcheckFlow[sink_22,sink_1] 1
WCcheckFlow[sink_24,sink_21] 2
WCcheckFlow[sink_21,sink_12] 1
WCcheckFlow[sink_7,sink_5] -7
WCcheckFlow[sink_5,sink_17] -8
WCcheckFlow[sink_17,sink_4] -10
WCcheckFlow[sink_17,sink_8] 1
WCcheckFlow[sink_3,sink_23] 1
WCcheckFlow[sink_8,sink_20] 0
WCcheckFlow[sink_25,sink_20] 0
WCcheckFlow[sink_25,sink_15] 6
WCcheckFlow[sink_15,sink_29] 5
WCcheckFlow[sink_29,sink_28] 1
WCcheckFlow[sink_29,sink_2] 1
WCcheckFlow[sink_2,sink_15] 0
WCcheckFlow[sink_29,innode_7] 2
WCcheckFlow[innode_4,sink_19] -4
WCcheckFlow[sink_19,innode_3] -5
WCcheckFlow[innode_4,innode_5] 2
WCcheckFlow[sink_27,innode_5] -1
WCcheckFlow[sink_27,sink_19] 0
WCcheckFlow[sink_10,sink_11] 3
WCcheckFlow[sink_10,innode_2] 1
WCcheckFlow[sink_10,innode_3] 6
WCcheckFlow[innode_6,sink_25] -14
WCcheckFlow[sink_11,innode_1] 2
WCcheckFlow[sink_19,innode_2] 0
WCcheckFlow[source_3,innode_4] -1
WCcheckFlow[source_2,innode_7] -1
WCcheckFlow[sink_3,innode_8] 37
